(set-logic QF_S)
(declare-fun var0 () String)
(assert (RegexIn var0 (RegexConcat (RegexUnion (RegexPlus (Str2Reg "00")) (RegexPlus (Str2Reg "11"))) (RegexConcat (RegexPlus (RegexPlus (Str2Reg "22"))) (RegexConcat (RegexPlus (RegexPlus (Str2Reg "3"))) (RegexConcat (RegexPlus (RegexUnion (Str2Reg "4") (Str2Reg "5"))) (RegexConcat (RegexUnion (RegexUnion (Str2Reg "666") (Str2Reg "7")) (RegexUnion (Str2Reg "8") (Str2Reg "999"))) (RegexConcat (RegexPlus (RegexPlus (Str2Reg "a"))) (RegexConcat (RegexStar (RegexStar (Str2Reg "b"))) (RegexConcat (RegexStar (RegexUnion (Str2Reg "ccc") (Str2Reg "d"))) (RegexConcat (RegexPlus (RegexPlus (Str2Reg "ee"))) (RegexConcat (RegexStar (RegexUnion (Str2Reg "f") (Str2Reg "g"))) (RegexConcat (RegexStar (RegexUnion (Str2Reg "h") (Str2Reg "iii"))) (RegexConcat (RegexStar (RegexPlus (Str2Reg "jj"))) (RegexConcat (RegexStar (RegexUnion (Str2Reg "kk") (Str2Reg "lll"))) (RegexConcat (RegexPlus (RegexPlus (Str2Reg "mm"))) (RegexConcat (RegexPlus (RegexUnion (Str2Reg "nn") (Str2Reg "o"))) (RegexConcat (RegexUnion (RegexPlus (Str2Reg "ppp")) (RegexPlus (Str2Reg "q"))) (RegexConcat (RegexPlus (RegexStar (Str2Reg "rr"))) (RegexConcat (RegexPlus (RegexUnion (Str2Reg "s") (Str2Reg "ttt"))) (RegexConcat (RegexStar (RegexStar (Str2Reg "u"))) (RegexConcat (RegexPlus (RegexStar (Str2Reg "vvv"))) (RegexConcat (RegexPlus (RegexStar (Str2Reg "ww"))) (RegexConcat (RegexUnion (RegexStar (Str2Reg "xx")) (RegexStar (Str2Reg "yyy"))) (RegexConcat (RegexStar (RegexUnion (Str2Reg "zz") (Str2Reg "A"))) (RegexConcat (RegexStar (RegexStar (Str2Reg "BB"))) (RegexConcat (RegexPlus (RegexUnion (Str2Reg "CC") (Str2Reg "D"))) (RegexConcat (RegexUnion (RegexStar (Str2Reg "EE")) (RegexStar (Str2Reg "FFF"))) (RegexConcat (RegexUnion (RegexPlus (Str2Reg "GGG")) (RegexPlus (Str2Reg "HH"))) (RegexConcat (RegexPlus (RegexPlus (Str2Reg "III"))) (RegexConcat (RegexStar (RegexUnion (Str2Reg "JJ") (Str2Reg "KKK"))) (RegexConcat (RegexPlus (RegexUnion (Str2Reg "LL") (Str2Reg "M"))) (RegexConcat (RegexPlus (RegexUnion (Str2Reg "NNN") (Str2Reg "O"))) (RegexConcat (RegexUnion (RegexUnion (Str2Reg "P") (Str2Reg "Q")) (RegexUnion (Str2Reg "RRR") (Str2Reg "SS"))) (RegexConcat (RegexPlus (RegexUnion (Str2Reg "TTT") (Str2Reg "UU"))) (RegexConcat (RegexPlus (RegexStar (Str2Reg "V"))) (RegexConcat (RegexStar (RegexUnion (Str2Reg "WW") (Str2Reg "X"))) (RegexConcat (RegexPlus (RegexPlus (Str2Reg "YYY"))) (RegexConcat (RegexPlus (RegexPlus (Str2Reg "ZZZ"))) (RegexConcat (RegexStar (RegexUnion (Str2Reg "!!!") (Str2Reg "\"\"\""))) (RegexConcat (RegexPlus (RegexPlus (Str2Reg "#"))) (RegexConcat (RegexStar (RegexStar (Str2Reg "$$"))) (RegexConcat (RegexUnion (RegexPlus (Str2Reg "%")) (RegexPlus (Str2Reg "&&"))) (RegexConcat (RegexUnion (RegexStar (Str2Reg "''")) (RegexStar (Str2Reg "("))) (RegexConcat (RegexPlus (RegexUnion (Str2Reg ")))") (Str2Reg "*"))) (RegexConcat (RegexUnion (RegexPlus (Str2Reg "+++")) (RegexPlus (Str2Reg ",,"))) (RegexConcat (RegexStar (RegexStar (Str2Reg "-"))) (RegexConcat (RegexUnion (RegexPlus (Str2Reg ".")) (RegexPlus (Str2Reg "///"))) (RegexConcat (RegexStar (RegexUnion (Str2Reg ":::") (Str2Reg ";;;"))) (RegexConcat (RegexPlus (RegexUnion (Str2Reg "<<") (Str2Reg "=="))) (RegexConcat (RegexPlus (RegexUnion (Str2Reg ">") (Str2Reg "???"))) (RegexConcat (RegexUnion (RegexPlus (Str2Reg "@")) (RegexPlus (Str2Reg "[[["))) (RegexPlus (RegexStar (Str2Reg "\\\\\\")))))))))))))))))))))))))))))))))))))))))))))))))))))))
(assert (not (RegexIn var0 (RegexConcat (RegexUnion (RegexStar (Str2Reg "00")) (RegexStar (Str2Reg "1"))) (RegexConcat (RegexPlus (RegexStar (Str2Reg "222"))) (RegexConcat (RegexStar (RegexStar (Str2Reg "333"))) (RegexConcat (RegexUnion (RegexPlus (Str2Reg "44")) (RegexPlus (Str2Reg "55"))) (RegexConcat (RegexUnion (RegexUnion (Str2Reg "66") (Str2Reg "777")) (RegexUnion (Str2Reg "88") (Str2Reg "9"))) (RegexConcat (RegexStar (RegexStar (Str2Reg "a"))) (RegexConcat (RegexStar (RegexPlus (Str2Reg "bbb"))) (RegexConcat (RegexStar (RegexPlus (Str2Reg "cc"))) (RegexConcat (RegexUnion (RegexStar (Str2Reg "dd")) (RegexStar (Str2Reg "eee"))) (RegexConcat (RegexUnion (RegexStar (Str2Reg "f")) (RegexStar (Str2Reg "ggg"))) (RegexConcat (RegexStar (RegexPlus (Str2Reg "h"))) (RegexConcat (RegexPlus (RegexPlus (Str2Reg "ii"))) (RegexConcat (RegexStar (RegexUnion (Str2Reg "jjj") (Str2Reg "k"))) (RegexConcat (RegexUnion (RegexUnion (Str2Reg "lll") (Str2Reg "mm")) (RegexUnion (Str2Reg "nn") (Str2Reg "o"))) (RegexConcat (RegexStar (RegexStar (Str2Reg "pp"))) (RegexConcat (RegexStar (RegexStar (Str2Reg "q"))) (RegexConcat (RegexPlus (RegexPlus (Str2Reg "rrr"))) (RegexConcat (RegexUnion (RegexStar (Str2Reg "s")) (RegexStar (Str2Reg "tt"))) (RegexConcat (RegexUnion (RegexUnion (Str2Reg "u") (Str2Reg "v")) (RegexUnion (Str2Reg "ww") (Str2Reg "xxx"))) (RegexConcat (RegexUnion (RegexPlus (Str2Reg "yy")) (RegexPlus (Str2Reg "zz"))) (RegexConcat (RegexUnion (RegexStar (Str2Reg "A")) (RegexStar (Str2Reg "BBB"))) (RegexConcat (RegexStar (RegexStar (Str2Reg "CC"))) (RegexConcat (RegexStar (RegexUnion (Str2Reg "DDD") (Str2Reg "EEE"))) (RegexConcat (RegexStar (RegexPlus (Str2Reg "FFF"))) (RegexConcat (RegexPlus (RegexPlus (Str2Reg "GGG"))) (RegexConcat (RegexPlus (RegexStar (Str2Reg "H"))) (RegexConcat (RegexUnion (RegexStar (Str2Reg "III")) (RegexStar (Str2Reg "JJJ"))) (RegexConcat (RegexUnion (RegexUnion (Str2Reg "KK") (Str2Reg "L")) (RegexUnion (Str2Reg "M") (Str2Reg "NN"))) (RegexConcat (RegexStar (RegexStar (Str2Reg "O"))) (RegexConcat (RegexStar (RegexStar (Str2Reg "PPP"))) (RegexConcat (RegexUnion (RegexPlus (Str2Reg "QQ")) (RegexPlus (Str2Reg "R"))) (RegexConcat (RegexPlus (RegexPlus (Str2Reg "SS"))) (RegexConcat (RegexPlus (RegexStar (Str2Reg "T"))) (RegexConcat (RegexUnion (RegexStar (Str2Reg "UUU")) (RegexStar (Str2Reg "VVV"))) (RegexConcat (RegexStar (RegexPlus (Str2Reg "WWW"))) (RegexConcat (RegexStar (RegexPlus (Str2Reg "XX"))) (RegexConcat (RegexPlus (RegexStar (Str2Reg "YY"))) (RegexConcat (RegexStar (RegexUnion (Str2Reg "ZZ") (Str2Reg "!"))) (RegexConcat (RegexUnion (RegexUnion (Str2Reg "\"\"") (Str2Reg "#")) (RegexUnion (Str2Reg "$") (Str2Reg "%%%"))) (RegexConcat (RegexStar (RegexPlus (Str2Reg "&&&"))) (RegexConcat (RegexPlus (RegexPlus (Str2Reg "'''"))) (RegexConcat (RegexStar (RegexUnion (Str2Reg "(((") (Str2Reg "))"))) (RegexConcat (RegexPlus (RegexStar (Str2Reg "**"))) (RegexConcat (RegexPlus (RegexUnion (Str2Reg "++") (Str2Reg ",,,"))) (RegexConcat (RegexUnion (RegexStar (Str2Reg "--")) (RegexStar (Str2Reg "..."))) (RegexConcat (RegexStar (RegexStar (Str2Reg "/"))) (RegexConcat (RegexPlus (RegexStar (Str2Reg ":::"))) (RegexConcat (RegexStar (RegexPlus (Str2Reg ";"))) (RegexConcat (RegexPlus (RegexUnion (Str2Reg "<") (Str2Reg "="))) (RegexConcat (RegexPlus (RegexStar (Str2Reg ">>"))) (RegexStar (RegexStar (Str2Reg "?"))))))))))))))))))))))))))))))))))))))))))))))))))))))))
(check-sat)